p cnf 430 1488
-191 18 0
-191 115 0
-191 166 0
-191 -17 0
-191 37 0
191 -18 -115 -166 17 -37 0
-192 -158 0
-192 83 0
-192 45 0
-192 161 0
-192 -12 0
192 158 -83 -45 -161 12 0
-193 -3 0
-193 115 0
-193 93 0
-193 79 0
-193 -154 0
193 3 -115 -93 -79 154 0
-194 57 0
-194 111 0
-194 28 0
-194 142 0
-194 -109 0
194 -57 -111 -28 -142 109 0
-195 -68 0
-195 -146 0
-195 121 0
-195 150 0
-195 -164 0
195 68 146 -121 -150 164 0
191 192 193 194 195 0
-196 -35 0
-196 -149 0
-196 109 0
-196 -162 0
-196 180 0
196 35 149 -109 162 -180 0
-197 -136 0
-197 190 0
-197 -162 0
-197 -102 0
-197 -95 0
197 136 -190 162 102 95 0
-198 87 0
-198 4 0
-198 138 0
-198 -128 0
-198 -108 0
198 -87 -4 -138 128 108 0
-199 95 0
-199 -126 0
-199 96 0
-199 147 0
-199 175 0
199 -95 126 -96 -147 -175 0
-200 -148 0
-200 101 0
-200 127 0
-200 -162 0
-200 88 0
200 148 -101 -127 162 -88 0
196 197 198 199 200 0
-201 181 0
-201 42 0
-201 -182 0
-201 102 0
-201 172 0
201 -181 -42 182 -102 -172 0
-202 116 0
-202 110 0
-202 -55 0
-202 -11 0
-202 -53 0
202 -116 -110 55 11 53 0
-203 156 0
-203 138 0
-203 180 0
-203 83 0
-203 -64 0
203 -156 -138 -180 -83 64 0
-204 188 0
-204 -88 0
-204 -173 0
-204 177 0
-204 171 0
204 -188 88 173 -177 -171 0
-205 -67 0
-205 115 0
-205 -139 0
-205 71 0
-205 -86 0
205 67 -115 139 -71 86 0
201 202 203 204 205 0
-206 -170 0
-206 -167 0
-206 -159 0
-206 -2 0
-206 43 0
206 170 167 159 2 -43 0
-207 83 0
-207 -14 0
-207 -167 0
-207 -66 0
-207 12 0
207 -83 14 167 66 -12 0
-208 63 0
-208 14 0
-208 -137 0
-208 -71 0
-208 -146 0
208 -63 -14 137 71 146 0
-209 -73 0
-209 -187 0
-209 161 0
-209 111 0
-209 -71 0
209 73 187 -161 -111 71 0
-210 184 0
-210 117 0
-210 -73 0
-210 77 0
-210 76 0
210 -184 -117 73 -77 -76 0
206 207 208 209 210 0
-211 -188 0
-211 105 0
-211 45 0
-211 8 0
-211 -29 0
211 188 -105 -45 -8 29 0
-212 153 0
-212 -131 0
-212 -71 0
-212 139 0
-212 -116 0
212 -153 131 71 -139 116 0
-213 141 0
-213 17 0
-213 24 0
-213 -185 0
-213 122 0
213 -141 -17 -24 185 -122 0
-214 -73 0
-214 113 0
-214 92 0
-214 -55 0
-214 -180 0
214 73 -113 -92 55 180 0
-215 -111 0
-215 56 0
-215 176 0
-215 149 0
-215 -48 0
215 111 -56 -176 -149 48 0
211 212 213 214 215 0
-216 -102 0
-216 23 0
-216 -15 0
-216 70 0
-216 -1 0
216 102 -23 15 -70 1 0
-217 -20 0
-217 -11 0
-217 -92 0
-217 51 0
-217 -5 0
217 20 11 92 -51 5 0
-218 -65 0
-218 -21 0
-218 -188 0
-218 -90 0
-218 139 0
218 65 21 188 90 -139 0
-219 -66 0
-219 -150 0
-219 35 0
-219 -183 0
-219 -168 0
219 66 150 -35 183 168 0
-220 78 0
-220 -68 0
-220 -163 0
-220 -125 0
-220 104 0
220 -78 68 163 125 -104 0
216 217 218 219 220 0
-221 -105 0
-221 142 0
-221 122 0
-221 -143 0
-221 -32 0
221 105 -142 -122 143 32 0
-222 176 0
-222 165 0
-222 162 0
-222 166 0
-222 -104 0
222 -176 -165 -162 -166 104 0
-223 -89 0
-223 38 0
-223 143 0
-223 33 0
-223 -134 0
223 89 -38 -143 -33 134 0
-224 116 0
-224 -140 0
-224 -92 0
-224 187 0
-224 -136 0
224 -116 140 92 -187 136 0
-225 -45 0
-225 55 0
-225 111 0
-225 -24 0
-225 100 0
225 45 -55 -111 24 -100 0
221 222 223 224 225 0
-226 -103 0
-226 -8 0
-226 66 0
-226 149 0
-226 -9 0
226 103 8 -66 -149 9 0
-227 123 0
-227 177 0
-227 104 0
-227 -28 0
-227 136 0
227 -123 -177 -104 28 -136 0
-228 -170 0
-228 -59 0
-228 -181 0
-228 -166 0
-228 32 0
228 170 59 181 166 -32 0
-229 -142 0
-229 -166 0
-229 -163 0
-229 16 0
-229 -13 0
229 142 166 163 -16 13 0
-230 117 0
-230 186 0
-230 -48 0
-230 156 0
-230 145 0
230 -117 -186 48 -156 -145 0
226 227 228 229 230 0
-231 147 0
-231 -67 0
-231 -104 0
-231 -113 0
-231 107 0
231 -147 67 104 113 -107 0
-232 -43 0
-232 -175 0
-232 -14 0
-232 -136 0
-232 -123 0
232 43 175 14 136 123 0
-233 95 0
-233 42 0
-233 48 0
-233 63 0
-233 72 0
233 -95 -42 -48 -63 -72 0
-234 -57 0
-234 -94 0
-234 -101 0
-234 -12 0
-234 -130 0
234 57 94 101 12 130 0
-235 146 0
-235 -115 0
-235 -53 0
-235 -173 0
-235 170 0
235 -146 115 53 173 -170 0
231 232 233 234 235 0
-236 -108 0
-236 129 0
-236 -3 0
-236 35 0
-236 -24 0
236 108 -129 3 -35 24 0
-237 -181 0
-237 173 0
-237 64 0
-237 -160 0
-237 70 0
237 181 -173 -64 160 -70 0
-238 -45 0
-238 -145 0
-238 80 0
-238 -118 0
-238 -26 0
238 45 145 -80 118 26 0
-239 87 0
-239 -73 0
-239 105 0
-239 5 0
-239 33 0
239 -87 73 -105 -5 -33 0
-240 41 0
-240 104 0
-240 132 0
-240 -55 0
-240 -101 0
240 -41 -104 -132 55 101 0
236 237 238 239 240 0
-241 60 0
-241 -39 0
-241 63 0
-241 129 0
-241 -69 0
241 -60 39 -63 -129 69 0
-242 118 0
-242 160 0
-242 -34 0
-242 -109 0
-242 16 0
242 -118 -160 34 109 -16 0
-243 61 0
-243 189 0
-243 161 0
-243 170 0
-243 -57 0
243 -61 -189 -161 -170 57 0
-244 -78 0
-244 183 0
-244 -182 0
-244 -64 0
-244 160 0
244 78 -183 182 64 -160 0
-245 107 0
-245 184 0
-245 125 0
-245 170 0
-245 31 0
245 -107 -184 -125 -170 -31 0
241 242 243 244 245 0
-246 -111 0
-246 158 0
-246 -19 0
-246 -130 0
-246 81 0
246 111 -158 19 130 -81 0
-247 138 0
-247 145 0
-247 42 0
-247 -144 0
-247 149 0
247 -138 -145 -42 144 -149 0
-248 -41 0
-248 -175 0
-248 102 0
-248 124 0
-248 -157 0
248 41 175 -102 -124 157 0
-249 55 0
-249 -179 0
-249 141 0
-249 176 0
-249 -41 0
249 -55 179 -141 -176 41 0
-250 -180 0
-250 153 0
-250 130 0
-250 -150 0
-250 80 0
250 180 -153 -130 150 -80 0
246 247 248 249 250 0
-251 170 0
-251 185 0
-251 -49 0
-251 166 0
-251 -126 0
251 -170 -185 49 -166 126 0
-252 -125 0
-252 -26 0
-252 61 0
-252 57 0
-252 188 0
252 125 26 -61 -57 -188 0
-253 120 0
-253 157 0
-253 67 0
-253 -64 0
-253 50 0
253 -120 -157 -67 64 -50 0
-254 170 0
-254 86 0
-254 -187 0
-254 -79 0
-254 132 0
254 -170 -86 187 79 -132 0
-255 53 0
-255 59 0
-255 116 0
-255 76 0
-255 -120 0
255 -53 -59 -116 -76 120 0
251 252 253 254 255 0
-256 83 0
-256 119 0
-256 42 0
-256 -46 0
-256 61 0
256 -83 -119 -42 46 -61 0
-257 177 0
-257 35 0
-257 174 0
-257 -106 0
-257 -127 0
257 -177 -35 -174 106 127 0
-258 -164 0
-258 -52 0
-258 -152 0
-258 103 0
-258 -88 0
258 164 52 152 -103 88 0
-259 -49 0
-259 -127 0
-259 -34 0
-259 141 0
-259 66 0
259 49 127 34 -141 -66 0
-260 122 0
-260 -20 0
-260 43 0
-260 -79 0
-260 -21 0
260 -122 20 -43 79 21 0
256 257 258 259 260 0
-261 -68 0
-261 -50 0
-261 79 0
-261 55 0
-261 -126 0
261 68 50 -79 -55 126 0
-262 101 0
-262 -136 0
-262 39 0
-262 -11 0
-262 126 0
262 -101 136 -39 11 -126 0
-263 124 0
-263 -3 0
-263 -12 0
-263 145 0
-263 64 0
263 -124 3 12 -145 -64 0
-264 -183 0
-264 -141 0
-264 -122 0
-264 167 0
-264 179 0
264 183 141 122 -167 -179 0
-265 109 0
-265 26 0
-265 -4 0
-265 -171 0
-265 164 0
265 -109 -26 4 171 -164 0
261 262 263 264 265 0
-266 35 0
-266 52 0
-266 40 0
-266 123 0
-266 -188 0
266 -35 -52 -40 -123 188 0
-267 41 0
-267 -23 0
-267 71 0
-267 -155 0
-267 128 0
267 -41 23 -71 155 -128 0
-268 32 0
-268 -126 0
-268 -140 0
-268 35 0
-268 17 0
268 -32 126 140 -35 -17 0
-269 87 0
-269 -45 0
-269 187 0
-269 104 0
-269 128 0
269 -87 45 -187 -104 -128 0
-270 176 0
-270 -121 0
-270 -175 0
-270 25 0
-270 30 0
270 -176 121 175 -25 -30 0
266 267 268 269 270 0
-271 63 0
-271 -110 0
-271 -24 0
-271 -12 0
-271 -164 0
271 -63 110 24 12 164 0
-272 -84 0
-272 111 0
-272 -36 0
-272 -97 0
-272 -49 0
272 84 -111 36 97 49 0
-273 145 0
-273 186 0
-273 -183 0
-273 -10 0
-273 5 0
273 -145 -186 183 10 -5 0
-274 75 0
-274 148 0
-274 156 0
-274 10 0
-274 184 0
274 -75 -148 -156 -10 -184 0
-275 13 0
-275 -46 0
-275 24 0
-275 -77 0
-275 152 0
275 -13 46 -24 77 -152 0
271 272 273 274 275 0
-276 -135 0
-276 -93 0
-276 -47 0
-276 -175 0
-276 -161 0
276 135 93 47 175 161 0
-277 11 0
-277 -105 0
-277 -86 0
-277 -84 0
-277 -190 0
277 -11 105 86 84 190 0
-278 -179 0
-278 130 0
-278 -84 0
-278 -95 0
-278 -184 0
278 179 -130 84 95 184 0
-279 109 0
-279 172 0
-279 -77 0
-279 113 0
-279 -183 0
279 -109 -172 77 -113 183 0
-280 -142 0
-280 -176 0
-280 -143 0
-280 29 0
-280 -111 0
280 142 176 143 -29 111 0
276 277 278 279 280 0
-281 83 0
-281 64 0
-281 182 0
-281 124 0
-281 127 0
281 -83 -64 -182 -124 -127 0
-282 152 0
-282 -156 0
-282 134 0
-282 -138 0
-282 -175 0
282 -152 156 -134 138 175 0
-283 -82 0
-283 101 0
-283 -78 0
-283 -77 0
-283 -140 0
283 82 -101 78 77 140 0
-284 9 0
-284 -38 0
-284 -103 0
-284 -166 0
-284 64 0
284 -9 38 103 166 -64 0
-285 154 0
-285 132 0
-285 -114 0
-285 -76 0
-285 29 0
285 -154 -132 114 76 -29 0
281 282 283 284 285 0
-286 49 0
-286 -25 0
-286 169 0
-286 117 0
-286 -125 0
286 -49 25 -169 -117 125 0
-287 -59 0
-287 66 0
-287 150 0
-287 2 0
-287 -3 0
287 59 -66 -150 -2 3 0
-288 147 0
-288 -125 0
-288 31 0
-288 7 0
-288 -128 0
288 -147 125 -31 -7 128 0
-289 -51 0
-289 -95 0
-289 80 0
-289 155 0
-289 -40 0
289 51 95 -80 -155 40 0
-290 124 0
-290 -77 0
-290 12 0
-290 -15 0
-290 -133 0
290 -124 77 -12 15 133 0
286 287 288 289 290 0
-291 83 0
-291 -43 0
-291 -164 0
-291 -65 0
-291 30 0
291 -83 43 164 65 -30 0
-292 -21 0
-292 -1 0
-292 102 0
-292 139 0
-292 -89 0
292 21 1 -102 -139 89 0
-293 156 0
-293 -5 0
-293 -150 0
-293 -13 0
-293 22 0
293 -156 5 150 13 -22 0
-294 -174 0
-294 37 0
-294 -43 0
-294 6 0
-294 -108 0
294 174 -37 43 -6 108 0
-295 89 0
-295 -48 0
-295 -153 0
-295 -85 0
-295 -77 0
295 -89 48 153 85 77 0
291 292 293 294 295 0
-296 111 0
-296 56 0
-296 -107 0
-296 92 0
-296 -173 0
296 -111 -56 107 -92 173 0
-297 148 0
-297 32 0
-297 128 0
-297 23 0
-297 104 0
297 -148 -32 -128 -23 -104 0
-298 106 0
-298 -51 0
-298 35 0
-298 -176 0
-298 99 0
298 -106 51 -35 176 -99 0
-299 -138 0
-299 103 0
-299 -106 0
-299 -64 0
-299 151 0
299 138 -103 106 64 -151 0
-300 189 0
-300 -120 0
-300 -102 0
-300 2 0
-300 -75 0
300 -189 120 102 -2 75 0
296 297 298 299 300 0
-301 -28 0
-301 -53 0
-301 -112 0
-301 -42 0
-301 -12 0
301 28 53 112 42 12 0
-302 -185 0
-302 -29 0
-302 -113 0
-302 57 0
-302 -17 0
302 185 29 113 -57 17 0
-303 76 0
-303 158 0
-303 119 0
-303 130 0
-303 -72 0
303 -76 -158 -119 -130 72 0
-304 -46 0
-304 53 0
-304 -61 0
-304 97 0
-304 -11 0
304 46 -53 61 -97 11 0
-305 148 0
-305 68 0
-305 -155 0
-305 -119 0
-305 -45 0
305 -148 -68 155 119 45 0
301 302 303 304 305 0
-306 -132 0
-306 -32 0
-306 -6 0
-306 81 0
-306 171 0
306 132 32 6 -81 -171 0
-307 89 0
-307 42 0
-307 1 0
-307 -171 0
-307 -141 0
307 -89 -42 -1 171 141 0
-308 -153 0
-308 96 0
-308 128 0
-308 81 0
-308 -123 0
308 153 -96 -128 -81 123 0
-309 141 0
-309 -94 0
-309 127 0
-309 185 0
-309 -147 0
309 -141 94 -127 -185 147 0
-310 174 0
-310 -188 0
-310 45 0
-310 -75 0
-310 -152 0
310 -174 188 -45 75 152 0
306 307 308 309 310 0
-311 76 0
-311 -140 0
-311 42 0
-311 188 0
-311 -32 0
311 -76 140 -42 -188 32 0
-312 -155 0
-312 -187 0
-312 -108 0
-312 -63 0
-312 -23 0
312 155 187 108 63 23 0
-313 -40 0
-313 -174 0
-313 -101 0
-313 11 0
-313 -156 0
313 40 174 101 -11 156 0
-314 -137 0
-314 -78 0
-314 108 0
-314 -96 0
-314 3 0
314 137 78 -108 96 -3 0
-315 -117 0
-315 -121 0
-315 -177 0
-315 5 0
-315 7 0
315 117 121 177 -5 -7 0
311 312 313 314 315 0
-316 -100 0
-316 104 0
-316 -7 0
-316 149 0
-316 46 0
316 100 -104 7 -149 -46 0
-317 23 0
-317 80 0
-317 135 0
-317 33 0
-317 175 0
317 -23 -80 -135 -33 -175 0
-318 61 0
-318 34 0
-318 146 0
-318 10 0
-318 94 0
318 -61 -34 -146 -10 -94 0
-319 -166 0
-319 -66 0
-319 -1 0
-319 86 0
-319 150 0
319 166 66 1 -86 -150 0
-320 111 0
-320 -44 0
-320 184 0
-320 -86 0
-320 -27 0
320 -111 44 -184 86 27 0
316 317 318 319 320 0
-321 -118 0
-321 -121 0
-321 43 0
-321 -102 0
-321 180 0
321 118 121 -43 102 -180 0
-322 -157 0
-322 -127 0
-322 -53 0
-322 100 0
-322 -156 0
322 157 127 53 -100 156 0
-323 -163 0
-323 -14 0
-323 -78 0
-323 184 0
-323 151 0
323 163 14 78 -184 -151 0
-324 181 0
-324 51 0
-324 28 0
-324 24 0
-324 -58 0
324 -181 -51 -28 -24 58 0
-325 75 0
-325 150 0
-325 -37 0
-325 -130 0
-325 66 0
325 -75 -150 37 130 -66 0
321 322 323 324 325 0
-326 -164 0
-326 -170 0
-326 99 0
-326 92 0
-326 96 0
326 164 170 -99 -92 -96 0
-327 188 0
-327 36 0
-327 -123 0
-327 -140 0
-327 -23 0
327 -188 -36 123 140 23 0
-328 183 0
-328 -125 0
-328 -43 0
-328 -38 0
-328 -19 0
328 -183 125 43 38 19 0
-329 -53 0
-329 -41 0
-329 143 0
-329 172 0
-329 19 0
329 53 41 -143 -172 -19 0
-330 156 0
-330 -154 0
-330 -11 0
-330 189 0
-330 -77 0
330 -156 154 11 -189 77 0
326 327 328 329 330 0
-331 49 0
-331 121 0
-331 -25 0
-331 -163 0
-331 -23 0
331 -49 -121 25 163 23 0
-332 19 0
-332 152 0
-332 -145 0
-332 134 0
-332 111 0
332 -19 -152 145 -134 -111 0
-333 -51 0
-333 182 0
-333 -180 0
-333 -171 0
-333 106 0
333 51 -182 180 171 -106 0
-334 77 0
-334 30 0
-334 -107 0
-334 173 0
-334 40 0
334 -77 -30 107 -173 -40 0
-335 108 0
-335 140 0
-335 -167 0
-335 110 0
-335 63 0
335 -108 -140 167 -110 -63 0
331 332 333 334 335 0
-336 -69 0
-336 -65 0
-336 -106 0
-336 96 0
-336 -146 0
336 69 65 106 -96 146 0
-337 -139 0
-337 -177 0
-337 144 0
-337 77 0
-337 -189 0
337 139 177 -144 -77 189 0
-338 -31 0
-338 112 0
-338 -188 0
-338 67 0
-338 174 0
338 31 -112 188 -67 -174 0
-339 94 0
-339 68 0
-339 -19 0
-339 112 0
-339 137 0
339 -94 -68 19 -112 -137 0
-340 -41 0
-340 45 0
-340 -156 0
-340 133 0
-340 127 0
340 41 -45 156 -133 -127 0
336 337 338 339 340 0
-341 -138 0
-341 33 0
-341 -3 0
-341 68 0
-341 -184 0
341 138 -33 3 -68 184 0
-342 130 0
-342 -149 0
-342 -68 0
-342 -62 0
-342 -79 0
342 -130 149 68 62 79 0
-343 7 0
-343 -92 0
-343 -40 0
-343 -135 0
-343 -1 0
343 -7 92 40 135 1 0
-344 168 0
-344 62 0
-344 -41 0
-344 169 0
-344 26 0
344 -168 -62 41 -169 -26 0
-345 183 0
-345 -101 0
-345 -48 0
-345 140 0
-345 -79 0
345 -183 101 48 -140 79 0
341 342 343 344 345 0
-346 90 0
-346 176 0
-346 147 0
-346 -185 0
-346 -112 0
346 -90 -176 -147 185 112 0
-347 -179 0
-347 134 0
-347 138 0
-347 -27 0
-347 58 0
347 179 -134 -138 27 -58 0
-348 108 0
-348 163 0
-348 80 0
-348 185 0
-348 -158 0
348 -108 -163 -80 -185 158 0
-349 -129 0
-349 -70 0
-349 -177 0
-349 -169 0
-349 -15 0
349 129 70 177 169 15 0
-350 -44 0
-350 -45 0
-350 -99 0
-350 106 0
-350 65 0
350 44 45 99 -106 -65 0
346 347 348 349 350 0
-351 21 0
-351 -69 0
-351 72 0
-351 165 0
-351 -15 0
351 -21 69 -72 -165 15 0
-352 89 0
-352 -116 0
-352 -189 0
-352 42 0
-352 68 0
352 -89 116 189 -42 -68 0
-353 35 0
-353 -142 0
-353 -57 0
-353 -56 0
-353 153 0
353 -35 142 57 56 -153 0
-354 87 0
-354 -22 0
-354 -7 0
-354 -187 0
-354 -31 0
354 -87 22 7 187 31 0
-355 -92 0
-355 -167 0
-355 59 0
-355 44 0
-355 128 0
355 92 167 -59 -44 -128 0
351 352 353 354 355 0
-356 71 0
-356 -126 0
-356 -104 0
-356 -142 0
-356 -143 0
356 -71 126 104 142 143 0
-357 51 0
-357 53 0
-357 9 0
-357 99 0
-357 180 0
357 -51 -53 -9 -99 -180 0
-358 -165 0
-358 135 0
-358 49 0
-358 -5 0
-358 35 0
358 165 -135 -49 5 -35 0
-359 -148 0
-359 142 0
-359 -158 0
-359 112 0
-359 27 0
359 148 -142 158 -112 -27 0
-360 50 0
-360 -12 0
-360 108 0
-360 165 0
-360 -86 0
360 -50 12 -108 -165 86 0
356 357 358 359 360 0
-361 -4 0
-361 -90 0
-361 39 0
-361 -129 0
-361 -52 0
361 4 90 -39 129 52 0
-362 -187 0
-362 -158 0
-362 85 0
-362 -35 0
-362 -64 0
362 187 158 -85 35 64 0
-363 148 0
-363 158 0
-363 -24 0
-363 139 0
-363 101 0
363 -148 -158 24 -139 -101 0
-364 -43 0
-364 -175 0
-364 122 0
-364 -112 0
-364 -68 0
364 43 175 -122 112 68 0
-365 35 0
-365 -54 0
-365 -60 0
-365 -64 0
-365 -117 0
365 -35 54 60 64 117 0
361 362 363 364 365 0
-366 30 0
-366 71 0
-366 17 0
-366 57 0
-366 187 0
366 -30 -71 -17 -57 -187 0
-367 133 0
-367 15 0
-367 -63 0
-367 -53 0
-367 -82 0
367 -133 -15 63 53 82 0
-368 99 0
-368 -74 0
-368 149 0
-368 -79 0
-368 134 0
368 -99 74 -149 79 -134 0
-369 13 0
-369 -120 0
-369 -103 0
-369 121 0
-369 14 0
369 -13 120 103 -121 -14 0
-370 -130 0
-370 -140 0
-370 94 0
-370 -70 0
-370 -26 0
370 130 140 -94 70 26 0
366 367 368 369 370 0
-371 42 0
-371 -86 0
-371 -151 0
-371 41 0
-371 -83 0
371 -42 86 151 -41 83 0
-372 119 0
-372 -106 0
-372 151 0
-372 112 0
-372 25 0
372 -119 106 -151 -112 -25 0
-373 90 0
-373 -98 0
-373 -133 0
-373 -143 0
-373 151 0
373 -90 98 133 143 -151 0
-374 32 0
-374 174 0
-374 -154 0
-374 -141 0
-374 165 0
374 -32 -174 154 141 -165 0
-375 166 0
-375 174 0
-375 -100 0
-375 125 0
-375 80 0
375 -166 -174 100 -125 -80 0
371 372 373 374 375 0
-376 -168 0
-376 -112 0
-376 -138 0
-376 69 0
-376 -131 0
376 168 112 138 -69 131 0
-377 -170 0
-377 139 0
-377 112 0
-377 106 0
-377 -160 0
377 170 -139 -112 -106 160 0
-378 186 0
-378 41 0
-378 112 0
-378 -24 0
-378 165 0
378 -186 -41 -112 24 -165 0
-379 47 0
-379 -184 0
-379 27 0
-379 -39 0
-379 42 0
379 -47 184 -27 39 -42 0
-380 -189 0
-380 172 0
-380 -146 0
-380 -182 0
-380 -42 0
380 189 -172 146 182 42 0
376 377 378 379 380 0
-381 -51 0
-381 -60 0
-381 -104 0
-381 27 0
-381 -81 0
381 51 60 104 -27 81 0
-382 190 0
-382 -142 0
-382 -152 0
-382 97 0
-382 118 0
382 -190 142 152 -97 -118 0
-383 -153 0
-383 180 0
-383 -49 0
-383 -31 0
-383 -10 0
383 153 -180 49 31 10 0
-384 126 0
-384 1 0
-384 -127 0
-384 -110 0
-384 -182 0
384 -126 -1 127 110 182 0
-385 132 0
-385 -15 0
-385 -107 0
-385 -154 0
-385 -146 0
385 -132 15 107 154 146 0
381 382 383 384 385 0
-386 23 0
-386 110 0
-386 65 0
-386 -62 0
-386 133 0
386 -23 -110 -65 62 -133 0
-387 44 0
-387 -186 0
-387 181 0
-387 -137 0
-387 79 0
387 -44 186 -181 137 -79 0
-388 -60 0
-388 -18 0
-388 72 0
-388 47 0
-388 74 0
388 60 18 -72 -47 -74 0
-389 -81 0
-389 -95 0
-389 -177 0
-389 16 0
-389 -85 0
389 81 95 177 -16 85 0
-390 -181 0
-390 173 0
-390 172 0
-390 190 0
-390 53 0
390 181 -173 -172 -190 -53 0
386 387 388 389 390 0
-391 -189 0
-391 128 0
-391 -102 0
-391 -175 0
-391 180 0
391 189 -128 102 175 -180 0
-392 61 0
-392 -47 0
-392 104 0
-392 -74 0
-392 -143 0
392 -61 47 -104 74 143 0
-393 106 0
-393 -155 0
-393 78 0
-393 47 0
-393 -90 0
393 -106 155 -78 -47 90 0
-394 -146 0
-394 -7 0
-394 127 0
-394 60 0
-394 108 0
394 146 7 -127 -60 -108 0
-395 -93 0
-395 -33 0
-395 133 0
-395 -91 0
-395 -46 0
395 93 33 -133 91 46 0
391 392 393 394 395 0
-396 121 0
-396 -21 0
-396 -30 0
-396 85 0
-396 -183 0
396 -121 21 30 -85 183 0
-397 112 0
-397 -107 0
-397 159 0
-397 59 0
-397 -151 0
397 -112 107 -159 -59 151 0
-398 -27 0
-398 92 0
-398 184 0
-398 104 0
-398 65 0
398 27 -92 -184 -104 -65 0
-399 -3 0
-399 36 0
-399 85 0
-399 -167 0
-399 -101 0
399 3 -36 -85 167 101 0
-400 -92 0
-400 -181 0
-400 -180 0
-400 145 0
-400 139 0
400 92 181 180 -145 -139 0
396 397 398 399 400 0
-401 -152 0
-401 54 0
-401 144 0
-401 -130 0
-401 94 0
401 152 -54 -144 130 -94 0
-402 -110 0
-402 -53 0
-402 152 0
-402 -64 0
-402 2 0
402 110 53 -152 64 -2 0
-403 -117 0
-403 140 0
-403 120 0
-403 -131 0
-403 -185 0
403 117 -140 -120 131 185 0
-404 -120 0
-404 51 0
-404 64 0
-404 48 0
-404 20 0
404 120 -51 -64 -48 -20 0
-405 -30 0
-405 -101 0
-405 60 0
-405 148 0
-405 -89 0
405 30 101 -60 -148 89 0
401 402 403 404 405 0
-406 -146 0
-406 -105 0
-406 -88 0
-406 -190 0
-406 77 0
406 146 105 88 190 -77 0
-407 -161 0
-407 -180 0
-407 -23 0
-407 86 0
-407 -76 0
407 161 180 23 -86 76 0
-408 -10 0
-408 75 0
-408 -29 0
-408 -44 0
-408 -22 0
408 10 -75 29 44 22 0
-409 -133 0
-409 34 0
-409 151 0
-409 -103 0
-409 -89 0
409 133 -34 -151 103 89 0
-410 -112 0
-410 -133 0
-410 -19 0
-410 30 0
-410 -36 0
410 112 133 19 -30 36 0
406 407 408 409 410 0
-411 -48 0
-411 186 0
-411 -118 0
-411 -29 0
-411 134 0
411 48 -186 118 29 -134 0
-412 -106 0
-412 -29 0
-412 109 0
-412 -107 0
-412 -163 0
412 106 29 -109 107 163 0
-413 -70 0
-413 146 0
-413 29 0
-413 170 0
-413 -81 0
413 70 -146 -29 -170 81 0
-414 -77 0
-414 -49 0
-414 43 0
-414 -168 0
-414 153 0
414 77 49 -43 168 -153 0
-415 -80 0
-415 -182 0
-415 -17 0
-415 -57 0
-415 -81 0
415 80 182 17 57 81 0
411 412 413 414 415 0
-416 -106 0
-416 24 0
-416 81 0
-416 62 0
-416 -10 0
416 106 -24 -81 -62 10 0
-417 4 0
-417 9 0
-417 -46 0
-417 -165 0
-417 -89 0
417 -4 -9 46 165 89 0
-418 -128 0
-418 -98 0
-418 173 0
-418 -54 0
-418 33 0
418 128 98 -173 54 -33 0
-419 -144 0
-419 -146 0
-419 -134 0
-419 5 0
-419 142 0
419 144 146 134 -5 -142 0
-420 -114 0
-420 63 0
-420 159 0
-420 177 0
-420 -50 0
420 114 -63 -159 -177 50 0
416 417 418 419 420 0
-421 48 0
-421 -21 0
-421 34 0
-421 -107 0
-421 -178 0
421 -48 21 -34 107 178 0
-422 112 0
-422 164 0
-422 161 0
-422 -163 0
-422 -148 0
422 -112 -164 -161 163 148 0
-423 171 0
-423 -103 0
-423 -149 0
-423 -66 0
-423 -75 0
423 -171 103 149 66 75 0
-424 -77 0
-424 -104 0
-424 -114 0
-424 162 0
-424 84 0
424 77 104 114 -162 -84 0
-425 -37 0
-425 -122 0
-425 -85 0
-425 5 0
-425 -7 0
425 37 122 85 -5 7 0
421 422 423 424 425 0
-426 -114 0
-426 10 0
-426 100 0
-426 -80 0
-426 -152 0
426 114 -10 -100 80 152 0
-427 61 0
-427 144 0
-427 146 0
-427 -56 0
-427 -100 0
427 -61 -144 -146 56 100 0
-428 -145 0
-428 -58 0
-428 21 0
-428 -165 0
-428 -113 0
428 145 58 -21 165 113 0
-429 125 0
-429 -131 0
-429 187 0
-429 8 0
-429 -111 0
429 -125 131 -187 -8 111 0
-430 -96 0
-430 67 0
-430 -61 0
-430 21 0
-430 -16 0
430 96 -67 61 -21 16 0
426 427 428 429 430 0
